(set-info :smt-lib-version 2.6)
(set-logic QF_SLIA)
(set-info :source |
Generated by: Dmitry Blotsky1, Federico Mora, Murphy Berzish, Yunhui Zheng, Ifaz Kabir, Vijay Ganesh, Zhengyang Lu
Generated on: 2018-01-24
Generator: StringFuzz
Application: Evaluate string solvers
Target solver: Z3str3, CVC4, Z3str2, Norn
Publications: Blotsky, D., Mora, F., Berzish, M., Zheng, Y., Kabir, I., & Ganesh, V. (2018). Stringfuzz: A fuzzer for string solvers. In CAV 2018.
Description: transformed by StringFuzz, a modular string and regex fuzzer, from an industrial benchmark
|)
(set-info :license "https://creativecommons.org/licenses/by/4.0/")
(set-info :category "random")
(set-info :status unknown)

(declare-const x String)
(declare-const y String)
(assert (= x "gwzh>w}YUk#!0]?VFL'\n'aDYTzBF}iScNthM$E@b""]'z0Rab""q:+NTiR%!+A\\pknE|~8uKhl+{lynM)_~u'\r'Pf!peYI/zO;9js+6'\n'=>Vsaa7Bnf6'\t'7~e>b<%DT2=/He8l`ht&:' '\\GvxU|ea8,D?ejxT'\t'<Y_UkPxHEygfC],ug'\r'JgbB<?qR9?w*' 'X""AA`5`]QZ0?8*?1|xmaaaa#8Dj\\4!' 'P%G_a'\x0b'};@<cfaa>n7k'\n'`<QhJW]y5>4Ji'\t'${_CbBjxQ7R5~wyQa<Z'\t'0.4(8bWu6;.7@%dU*aqa"))
(assert (str.in_re x (re.+ (re.+ (str.to_re "C)>+'\t'il6=jedd}L{")))))
(check-sat)

(exit)
